benchmarks/VRPTW/TSPTW/solution/n100w100.003.txt.solution
1 28 35 42 63 9 11 33 34 96 5 88 25 49 59 72 32 16 99 78 45 41 84 69 95 6 38 19 91 15 70 2 60 13 22 97 12 51 68 44 87 90 36 27 31 80 7 98 30 4 64 46 89 62 77 61 65 75 76 50 74 17 21 47 58 66 37 10 81 73 79 40 26 23 14 8 55 18 71 100 56 85 52 24 20 93 94 29 54 86 48 39 3 57 67 82 53 43 83 101 92 
686
